50
    1    99    45
    2    96    93
    3    29    67
    4    65   100
    5    23    41
    6     2    91
    7    99    70
    8     1    81
    9    96    46
   10     4    59
   11     4    57
   12    20   100
   13     8    93
   14    27    61
   15    48     6
   16    17    54
   17    11    10
   18    15    25
   19    20    58
   20    79     7
   21    91    14
   22     4    13
   23     1     1
   24    93    96
   25    46    50
   26    44    21
   27    73    95
   28    21    17
   29    63    39
   30    94     4
   31    86    95
   32     5    41
   33     5    25
   34    12    14
   35    41    45
   36    70    62
   37    50    49
   38   100    18
   39    64    37
   40    97    76
   41    13    16
   42    95    23
   43    39    47
   44    48    59
   45     4    16
   46    68    44
   47    58    95
   48    34    79
   49    78    16
   50    27    57
1618
